peakDumbCharging = 7400; 
Machine = anon_enum(16); 
machineSpeed = [3700,3700,3700,3700,3700,3700,3700,3700,3700,3700,3700,3700,3700,3700,3700,3700]; 
machineLoad = [3700,3700,3700,3700,3700,3700,3700,3700,3700,3700,3700,3700,3700,3700,3700,3700]; 
Car = anon_enum(5); 
demandCar = [12080,8520,2120,8080,12240]; 
arrivalCar = [57,52,51,47,46]; 
departureCar = [72,56,53,52,51]; 
